40
60
9 30 32 39 40 
6 29 35 37 39 
13 18 29 32 33 
9 11 15 16 24 
10 14 29 30 39 
4 11 12 23 29 
12 22 23 31 37 
1 7 16 26 30 
10 15 16 27 40 
3 6 17 34 40 
8 9 32 38 40 
3 13 15 25 34 
9 11 17 27 29 
3 5 7 12 30 
13 19 34 39 40 
2 9 11 26 35 
1 4 13 29 40 
8 20 21 31 36 
2 22 23 33 39 
20 22 28 32 36 
1 
2 
3 
4 
5 
6 
7 
8 
9 
10 
11 
12 
13 
14 
15 
16 
17 
18 
19 
20 
21 
22 
23 
24 
25 
26 
27 
28 
29 
30 
31 
32 
33 
34 
35 
36 
37 
38 
39 
40 
